33D32945 STP File, STP Format Version 1.0

SECTION Comment
Name    "cancer3_6D"
Creator "S. A. Chowdhury, A. A. Schaffer, R. Schwartz"
Problem "Rectilinear Steiner Minimum Tree"
Remark  "Derived from a problem in cancer research"
END

SECTION Graph 
Nodes 110
END

SECTION Coordinates
DDDDDD 1 2 2 2 2 2 2 
DDDDDD 2 3 1 1 1 1 3 
DDDDDD 3 2 0 0 2 2 2 
DDDDDD 4 2 1 2 1 1 2 
DDDDDD 5 2 1 2 1 2 2 
DDDDDD 6 2 2 4 2 2 4 
DDDDDD 7 6 1 2 1 2 3 
DDDDDD 8 2 0 1 1 2 2 
DDDDDD 9 2 1 1 1 2 2 
DDDDDD 10 2 1 2 2 2 2 
DDDDDD 11 2 2 2 1 2 2 
DDDDDD 12 2 2 2 1 4 2 
DDDDDD 13 2 2 2 2 2 3 
DDDDDD 14 2 2 2 2 3 2 
DDDDDD 15 2 2 2 2 4 2 
DDDDDD 16 2 2 2 1 3 2 
DDDDDD 17 2 2 2 2 4 3 
DDDDDD 18 2 2 2 2 4 4 
DDDDDD 19 3 1 2 1 1 2 
DDDDDD 20 3 1 1 2 1 2 
DDDDDD 21 4 1 2 2 2 3 
DDDDDD 22 5 0 1 1 1 1 
DDDDDD 23 5 0 1 2 2 3 
DDDDDD 24 5 1 4 2 4 3 
DDDDDD 25 5 1 3 2 2 4 
DDDDDD 26 5 1 4 2 2 3 
DDDDDD 27 5 1 4 2 5 4 
DDDDDD 28 5 1 2 2 3 3 
DDDDDD 29 5 1 1 1 2 3 
DDDDDD 30 5 2 3 2 2 4 
DDDDDD 31 5 2 4 2 3 3 
DDDDDD 32 5 3 4 2 1 5 
DDDDDD 33 6 1 4 2 2 4 
DDDDDD 34 6 1 4 2 3 5 
DDDDDD 35 6 1 2 2 4 4 
DDDDDD 36 6 1 2 2 3 2 
DDDDDD 37 7 1 2 1 2 3 
DDDDDD 38 7 1 3 1 2 6 
DDDDDD 39 7 1 1 1 2 3 
DDDDDD 40 7 2 2 2 2 4 
DDDDDD 41 7 2 2 2 4 3 
DDDDDD 42 8 1 2 1 2 3 
DDDDDD 43 2 0 2 2 2 3 
DDDDDD 44 2 1 2 1 4 2 
DDDDDD 45 2 1 2 2 4 2 
DDDDDD 46 2 1 2 2 3 4 
DDDDDD 47 3 1 2 2 4 4 
DDDDDD 48 3 1 1 1 2 0 
DDDDDD 49 3 2 3 2 2 2 
DDDDDD 50 4 1 2 2 3 4 
DDDDDD 51 4 1 2 2 4 0 
DDDDDD 52 4 1 2 1 4 3 
DDDDDD 53 4 1 2 1 4 4 
DDDDDD 54 4 2 3 3 4 4 
DDDDDD 55 4 2 2 2 2 3 
DDDDDD 56 5 1 2 2 3 2 
DDDDDD 57 5 1 2 1 3 3 
DDDDDD 58 5 1 2 1 4 5 
DDDDDD 59 5 1 2 2 4 4 
DDDDDD 60 5 1 2 2 2 3 
DDDDDD 61 5 1 2 2 2 4 
DDDDDD 62 5 1 2 1 2 4 
DDDDDD 63 5 1 2 1 1 5 
DDDDDD 64 5 1 2 2 2 5 
DDDDDD 65 5 2 2 2 3 4 
DDDDDD 66 6 1 2 2 2 5 
DDDDDD 67 6 1 2 2 2 3 
DDDDDD 68 6 1 2 2 2 4 
DDDDDD 69 6 1 2 2 5 4 
DDDDDD 70 6 1 2 2 7 3 
DDDDDD 71 6 1 2 1 2 4 
DDDDDD 72 6 2 2 1 2 3 
DDDDDD 73 7 1 2 2 2 4 
DDDDDD 74 7 1 2 1 1 4 
DDDDDD 75 7 1 2 2 2 3 
DDDDDD 76 7 1 2 2 3 0 
DDDDDD 77 8 1 2 2 2 3 
DDDDDD 78 2 1 2 2 4 4 
DDDDDD 79 2 2 2 1 2 3 
DDDDDD 80 3 1 2 2 5 3 
DDDDDD 81 4 1 2 2 4 4 
DDDDDD 82 4 1 2 1 6 4 
DDDDDD 83 4 1 2 2 2 2 
DDDDDD 84 5 1 2 1 3 4 
DDDDDD 85 5 1 2 2 5 3 
DDDDDD 86 5 2 2 2 4 5 
DDDDDD 87 6 1 2 1 4 4 
DDDDDD 88 4 1 2 2 3 3 
DDDDDD 89 7 1 2 2 3 4 
DDDDDD 90 7 1 2 1 3 3 
DDDDDD 91 7 1 2 3 3 4 
DDDDDD 92 5 1 2 1 2 3 
DDDDDD 93 5 1 2 2 3 4 
DDDDDD 94 5 3 2 2 3 5 
DDDDDD 95 6 1 2 2 6 5 
DDDDDD 96 7 1 2 2 4 4 
DDDDDD 97 7 1 2 3 6 3 
DDDDDD 98 8 1 2 1 2 4 
DDDDDD 99 4 1 2 2 3 5 
DDDDDD 100 5 1 2 2 7 4 
DDDDDD 101 5 2 3 3 3 4 
DDDDDD 102 5 2 2 2 1 3 
DDDDDD 103 6 1 2 3 3 4 
DDDDDD 104 6 1 2 2 6 3 
DDDDDD 105 4 2 2 3 4 4 
DDDDDD 106 5 1 2 3 4 4 
DDDDDD 107 5 1 2 1 4 4 
DDDDDD 108 5 1 2 2 6 4 
DDDDDD 109 6 1 2 2 3 4 
DDDDDD 110 6 1 2 1 5 5 
END

EOF
